set VV := 0 1 2 3 4 5 6 7 8 9 10 11 12 13 14 15 16 ;
set VS := 0 1 2 3 4 5 6 7 8 9 10 11 12 13 14 15 16 17 18 19 20 21 22 23 24 25 26 27 28 29 30 31 32 33 34 35 36 37 38 ;
param cv := 
0 25
1 18
2 14
3 11
4 16
5 12
6 17
7 13
8 25
9 11
10 10
11 19
12 18
13 25
14 15
15 11
16 16
;
param cs := 
0 27
1 27
2 20
3 35
4 40
5 37
6 35
7 25
8 24
9 32
10 40
11 35
12 36
13 33
14 25
15 21
16 24
17 39
18 40
19 30
20 27
21 36
22 30
23 39
24 40
25 23
26 36
27 40
28 40
29 25
30 22
31 34
32 20
33 24
34 20
35 23
36 33
37 28
38 24
;
param bv:	 0 1 2 3 4 5 6 7 8 9 10 11 12 13 14 15 16 := 
		0 0 0 0 0 0 0 24 0 0 0 0 0 0 0 0 0 0 
		1 0 0 16 0 0 0 20 0 0 0 0 0 0 0 0 18 13 
		2 0 0 0 0 0 0 0 0 19 0 0 0 19 0 0 0 0 
		3 0 0 0 0 0 0 19 0 0 0 0 0 0 0 0 0 0 
		4 0 0 0 0 0 0 0 0 0 0 19 12 0 0 0 0 0 
		5 0 0 0 0 0 0 0 0 0 0 11 0 0 0 0 0 0 
		6 0 0 0 0 0 0 0 11 14 0 0 0 0 0 24 0 0 
		7 0 0 0 0 0 0 0 0 0 0 14 0 0 0 0 0 0 
		8 0 0 0 0 0 0 0 0 0 0 0 0 0 0 0 0 18 
		9 0 0 0 0 0 0 0 0 0 0 0 24 0 15 0 0 0 
		10 0 0 0 0 0 0 0 0 0 0 0 0 0 0 0 0 0 
		11 0 0 0 0 0 0 0 0 0 0 0 0 0 0 0 0 0 
		12 0 0 0 0 0 0 0 0 0 0 0 0 0 0 13 0 0 
		13 0 0 0 0 0 0 0 0 0 0 0 0 0 0 0 0 0 
		14 0 0 0 0 0 0 0 0 0 0 0 0 0 0 0 0 0 
		15 0 0 0 0 0 0 0 0 0 0 0 0 0 0 0 0 0 
		16 0 0 0 0 0 0 0 0 0 0 0 0 0 0 0 0 0 
;
param bs:	 0 1 2 3 4 5 6 7 8 9 10 11 12 13 14 15 16 17 18 19 20 21 22 23 24 25 26 27 28 29 30 31 32 33 34 35 36 37 38 := 
		0 0 0 0 0 0 0 36 0 0 0 0 0 0 0 0 0 0 0 0 0 0 0 27 0 0 0 0 0 0 0 0 0 0 0 0 0 0 0 0 
		1 0 0 0 0 0 0 0 0 21 30 0 0 0 0 22 0 0 38 0 0 0 0 0 0 0 38 0 0 0 0 0 0 23 0 0 0 0 24 21 
		2 0 0 0 0 28 0 0 0 0 0 0 0 0 0 0 0 0 24 0 0 0 0 0 0 0 0 0 0 0 0 0 0 0 0 0 0 0 0 37 
		3 0 0 0 0 0 0 0 0 0 0 0 0 0 0 0 0 21 0 0 0 24 0 0 0 0 0 0 24 0 0 0 0 0 0 0 0 0 0 0 
		4 0 0 28 0 0 0 39 0 0 0 0 0 29 0 0 0 0 0 0 37 0 0 0 0 0 0 0 27 39 0 25 35 0 0 0 0 0 0 0 
		5 0 0 0 0 0 0 0 28 0 0 0 0 0 0 0 0 0 0 0 0 29 0 0 0 0 0 35 0 0 0 0 0 0 0 35 28 0 20 0 
		6 36 0 0 0 39 0 0 0 0 0 0 0 0 25 0 0 0 0 0 0 0 20 0 0 0 0 0 0 0 0 0 25 0 0 0 0 0 0 0 
		7 0 0 0 0 0 28 0 0 0 0 0 0 0 0 0 0 0 0 0 0 0 0 0 0 20 0 0 0 0 0 21 0 0 0 29 0 0 0 0 
		8 0 21 0 0 0 0 0 0 0 0 0 0 0 0 0 0 0 0 0 0 0 0 0 0 0 36 0 0 0 0 0 0 0 0 0 0 0 0 0 
		9 0 30 0 0 0 0 0 0 0 0 0 29 0 0 0 0 0 0 0 0 0 0 0 23 0 0 0 0 0 0 0 0 0 0 0 0 31 0 0 
		10 0 0 0 0 0 0 0 0 0 0 0 0 0 0 0 0 0 0 35 0 0 0 0 0 0 0 0 0 0 0 0 0 0 30 0 0 0 0 0 
		11 0 0 0 0 0 0 0 0 0 29 0 0 0 0 0 0 0 0 0 0 0 0 0 0 23 33 0 0 0 0 0 0 0 0 0 0 0 34 0 
		12 0 0 0 0 29 0 0 0 0 0 0 0 0 36 26 0 0 30 0 0 0 0 0 0 0 0 0 0 0 0 0 0 0 0 0 0 0 0 0 
		13 0 0 0 0 0 0 25 0 0 0 0 0 36 0 0 0 0 0 0 38 0 0 0 0 0 0 0 0 0 35 0 0 0 35 0 0 0 0 0 
		14 0 22 0 0 0 0 0 0 0 0 0 0 26 0 0 33 0 0 0 0 0 0 0 0 0 33 0 0 0 0 0 0 0 0 0 0 0 0 0 
		15 0 0 0 0 0 0 0 0 0 0 0 0 0 0 33 0 0 0 33 0 0 0 0 40 0 0 0 0 0 0 0 0 0 37 0 0 0 32 0 
		16 0 0 0 21 0 0 0 0 0 0 0 0 0 0 0 0 0 0 0 0 0 0 0 0 0 0 0 0 0 0 0 0 0 0 0 0 0 0 0 
		17 0 38 24 0 0 0 0 0 0 0 0 0 30 0 0 0 0 0 0 0 0 0 0 0 33 0 0 0 0 0 0 0 0 0 0 0 0 0 0 
		18 0 0 0 0 0 0 0 0 0 0 35 0 0 0 0 33 0 0 0 0 0 0 0 0 0 0 0 0 38 0 0 0 0 0 0 0 0 0 0 
		19 0 0 0 0 37 0 0 0 0 0 0 0 0 38 0 0 0 0 0 0 0 0 0 0 0 0 0 0 0 0 0 0 0 0 0 0 0 0 0 
		20 0 0 0 24 0 29 0 0 0 0 0 0 0 0 0 0 0 0 0 0 0 0 0 0 35 0 0 0 21 0 0 0 0 0 0 0 0 39 0 
		21 0 0 0 0 0 0 20 0 0 0 0 0 0 0 0 0 0 0 0 0 0 0 0 0 0 0 0 0 22 0 0 0 0 0 0 0 0 0 0 
		22 27 0 0 0 0 0 0 0 0 0 0 0 0 0 0 0 0 0 0 0 0 0 0 0 0 0 0 26 0 0 0 0 0 0 0 0 0 0 0 
		23 0 0 0 0 0 0 0 0 0 23 0 0 0 0 0 40 0 0 0 0 0 0 0 0 0 0 0 0 0 0 0 0 0 34 0 0 0 0 0 
		24 0 0 0 0 0 0 0 20 0 0 0 23 0 0 0 0 0 33 0 0 35 0 0 0 0 0 0 0 0 0 0 0 0 0 0 0 0 0 29 
		25 0 38 0 0 0 0 0 0 36 0 0 33 0 0 33 0 0 0 0 0 0 0 0 0 0 0 0 0 0 0 0 0 35 0 0 0 0 31 0 
		26 0 0 0 0 0 35 0 0 0 0 0 0 0 0 0 0 0 0 0 0 0 0 0 0 0 0 0 0 0 0 0 0 0 0 0 0 0 0 0 
		27 0 0 0 24 27 0 0 0 0 0 0 0 0 0 0 0 0 0 0 0 0 0 26 0 0 0 0 0 0 33 0 35 0 0 0 0 0 0 38 
		28 0 0 0 0 39 0 0 0 0 0 0 0 0 0 0 0 0 0 38 0 21 22 0 0 0 0 0 0 0 0 0 0 0 25 0 36 0 0 0 
		29 0 0 0 0 0 0 0 0 0 0 0 0 0 35 0 0 0 0 0 0 0 0 0 0 0 0 0 33 0 0 0 0 0 0 0 0 0 0 0 
		30 0 0 0 0 25 0 0 21 0 0 0 0 0 0 0 0 0 0 0 0 0 0 0 0 0 0 0 0 0 0 0 0 0 0 0 0 0 0 0 
		31 0 0 0 0 35 0 25 0 0 0 0 0 0 0 0 0 0 0 0 0 0 0 0 0 0 0 0 35 0 0 0 0 0 0 0 0 0 0 0 
		32 0 23 0 0 0 0 0 0 0 0 0 0 0 0 0 0 0 0 0 0 0 0 0 0 0 35 0 0 0 0 0 0 0 0 0 0 27 0 0 
		33 0 0 0 0 0 0 0 0 0 0 30 0 0 35 0 37 0 0 0 0 0 0 0 34 0 0 0 0 25 0 0 0 0 0 0 28 0 23 0 
		34 0 0 0 0 0 35 0 29 0 0 0 0 0 0 0 0 0 0 0 0 0 0 0 0 0 0 0 0 0 0 0 0 0 0 0 0 0 0 0 
		35 0 0 0 0 0 28 0 0 0 0 0 0 0 0 0 0 0 0 0 0 0 0 0 0 0 0 0 0 36 0 0 0 0 28 0 0 0 0 0 
		36 0 0 0 0 0 0 0 0 0 31 0 0 0 0 0 0 0 0 0 0 0 0 0 0 0 0 0 0 0 0 0 0 27 0 0 0 0 0 36 
		37 0 24 0 0 0 20 0 0 0 0 0 34 0 0 0 32 0 0 0 0 39 0 0 0 0 31 0 0 0 0 0 0 0 23 0 0 0 0 0 
		38 0 21 37 0 0 0 0 0 0 0 0 0 0 0 0 0 0 0 0 0 0 0 0 0 29 0 0 38 0 0 0 0 0 0 0 0 36 0 0 
;
